c ---- [ banner ] ------------------------------------------------------------
c
c Kissat SAT Solver
c 
c Copyright (c) 2021-2023 Armin Biere University of Freiburg
c Copyright (c) 2019-2021 Armin Biere Johannes Kepler University Linz
c 
c Version 3.1.1 unknown
c gcc (Ubuntu 9.4.0-1ubuntu1~20.04.2) 9.4.0 -W -Wall -O3 -DNDEBUG
c Mon Feb 26 18:18:52 CET 2024 Linux OptiPlex-7080 5.15.0-88-generic x86_64
c
c ---- [ parsing ] -----------------------------------------------------------
c
c opened and reading DIMACS file:
c
c   /home/oliveras/SAT-comp-2023//a9d081cbb33e6051be2512f2a2269d65-hash_table_find_safety_size_20.cnf
c
c parsed 'p cnf 11544110 52936631' header
c closing input after reading 1305818771 bytes (1 GB)
c finished parsing after 12.21 seconds
c
c ---- [ options ] -----------------------------------------------------------
c
c --seed=1                         (different from default '0')
c
c ---- [ solving ] -----------------------------------------------------------
c
c  seconds   switched conflicts       irredundant    variables
c           MB reductions redundant            trail        remaining
c            level restarts      binary           glue
c
c * 12.21 3269 0 0 0  0   0   0 7101877 39221185 0% 0 10449178 91%
c { 12.21 3269 0 0 0  0   0   0 7101877 39221185 0% 0 10449178 91%
c - 12.96 3272 1043 0 1  0 1011  29 6707671 39221185 1% 459 10449178 91%
c } 12.96 3272 1043 1 1  0 1011  29 6707671 39221185 1% 459 10449178 91%
c [ 12.96 3272 0 1 1  0 1011  29 6707671 39221185 0% 0 10449178 91%
c B 13.41 3313 0 1 1  0 1011  29 6707671 39221185 0% 0 10449178 91%
c ] 13.71 3313 14 2 1  0 1012  30 6707671 39221185 1% 3 10449178 91%
c { 13.71 3313 1043 2 1  0 1012  30 6707671 39221185 1% 459 10449178 91%
c i 14.47 3315 1041 2 1  0 1024  33 6707679 39221185 1% 352 10449177 91%
c - 15.23 3315 1043 2 2  0 2131 1093 6707676 39221185 1% 25 10449177 91%
c } 15.23 3315 1043 3 2  0 2131 1093 6707676 39221185 1% 25 10449177 91%
c [ 15.24 3315 14 3 2  0 2131 1093 6707676 39221185 1% 3 10449177 91%
c W 24.76 3467 14 3 2  0 2131 1093 6707676 39124923 1% 3 10449177 91%
c i 25.20 3467 1006 3 2  1 3315 2218 6707681 39124923 2% 14 10449176 91%
c ] 25.37 3471 969 4 2  1 3361 2252 6707691 39124923 2% 13 10449176 91%
c { 25.37 3471 1043 4 2  1 3361 2252 6707691 39124923 1% 25 10449176 91%
c i 27.49 3480 1009 4 2  3 3536 2266 6707695 39124923 1% 26 10449175 91%
c i 27.51 3480 1007 4 2  7 3541 2269 6707696 39124923 1% 26 10447663 91%
c - 29.02 3480 1006 4 3 11 3545  56 6707220 39124923 1% 26 10447663 91%
c i 30.13 3484 1003 4 3 15 3554  63 6707220 39124923 1% 26 10346291 90%
c
c  seconds      switched conflicts        irredundant     variables
c           MB   reductions  redundant             trail         remaining
c             level  restarts        binary            glue
c
c i 30.13 3484 1002 4 3 15 3555  63 6707220 39124923 1% 26 10346287 90%
c i 31.37 3498 962 4 3 15 4063  78 6707223 39124923 5% 25 10346286 90%
c i 33.22 3530 952 4 3 15 4122 107 6707233 39124923 5% 25 10346285 90%
c i 36.23 3550 949 4 3 15 4134 112 6707237 39124923 6% 25 10346284 90%
c i 36.94 3550 932 4 3 15 4201 176 6707237 39124923 7% 24 10346281 90%
c i 38.00 3552 921 4 3 15 4250 214 6707246 39124923 7% 23 10346278 90%
c i 38.01 3552 918 4 3 15 4260 220 6707246 39124923 7% 23 10346275 90%
c i 38.01 3552 918 4 3 15 4262 221 6707246 39124923 7% 23 10346272 90%
c i 38.01 3552 917 4 3 15 4265 223 6707246 39124923 7% 23 10346269 90%
c i 39.96 3552 914 4 3 15 4278 234 6707247 39124923 7% 23 10346266 90%
c i 39.96 3552 913 4 3 15 4280 234 6707248 39124922 7% 23 10346186 90%
c i 39.97 3552 913 4 3 15 4282 235 6707248 39124922 7% 23 10346185 90%
c i 41.18 3552 910 4 3 15 4294 240 6707251 39124922 8% 23 10346181 90%
c i 50.22 3556 884 4 3 30 4403 324 6707271 39124922 8% 24 10346178 90%
c i 51.65 3556 883 4 3 32 4406 326 6707271 39124922 8% 24 10346177 90%
c i 51.65 3556 882 4 3 36 4411 329 6707272 39124922 8% 24 10346173 90%
c i 58.51 3558 876 4 3 50 4436 344 6707277 39124922 8% 24 10346172 90%
c i 62.96 3558 873 4 3 59 4450 356 6707278 39124922 8% 24 10346169 90%
c i 70.23 3560 823 4 3 67 4763 473 6707348 39124922 10% 23 10346167 90%
c i 71.63 3560 818 4 3 67 4796 499 6707348 39124922 11% 23 10346162 90%
c
c  seconds     switched conflicts        irredundant      variables
c           MB  reductions  redundant              trail         remaining
c             level restarts        binary             glue
c
c i 72.85 3560 814 4 3 67 4827 529 6707348 39124922 11% 23 10346161 90%
c i 75.70 3560 794 4 3 67 4976 675 6707349 39124922 12% 22 10346159 90%
c i 91.34 3570 775 4 3 71 5266 952 6707350 39124922 14% 22 10345935 90%
c i 91.99 3572 778 4 3 71 5281 964 6707351 39124922 14% 22 10345816 90%
c - 96.98 3495 778 4 4 71 5281 601 7823355 36427529 14% 22 10345816 90%
c i 110.96 3509 775 4 4 88 5304 618 7823358 36427529 14% 22 6855712 59%
c i 111.42 3509 774 4 4 93 5316 623 7823360 36427528 14% 22 6855710 59%
c i 114.83 3515 757 4 4 99 5562 671 7823429 36427528 14% 22 6855708 59%
c i 114.83 3515 757 4 4 99 5568 673 7823430 36427528 14% 22 6855696 59%
c i 114.95 3515 752 4 4 99 5603 701 7823434 36427528 14% 22 6855689 59%
c i 115.31 3515 749 4 4 99 5622 716 7823435 36427528 14% 21 6855686 59%
c } 116.29 3517 744 5 4 99 5713 738 7823459 36427528 15% 21 6855686 59%
c [ 116.29 3517 969 5 4 99 5713 738 7823459 36427528 2% 13 6855686 59%
c I 116.37 3517 969 5 4 99 5713 738 7823459 36427528 2% 13 6855685 59%
c i 116.48 3517 964 5 4 99 5719 743 7823459 36427528 2% 13 6855684 59%
c i 116.52 3517 964 5 4 99 5720 743 7823459 36427528 2% 13 6855683 59%
c i 116.56 3517 963 5 4 99 5721 743 7823459 36427528 2% 13 6855682 59%
c i 116.60 3517 962 5 4 99 5722 743 7823459 36427528 2% 13 6855680 59%
c i 116.64 3517 961 5 4 99 5723 743 7823459 36427528 2% 13 6855679 59%
c i 116.69 3517 960 5 4 99 5724 743 7823459 36427528 2% 13 6855678 59%
c
c  seconds      switched conflicts        irredundant     variables
c            MB  reductions  redundant             trail        remaining
c              level restarts        binary            glue
c
c i 116.73 3517 960 5 4 99 5725 743 7823459 36427528 2% 13 6855677 59%
c d 122.79 3536 911 5 4 99 5877 753 8982194 18641615 6% 15 6318396 55%
c b 124.69 3767 911 5 4 99 5877 753 8982194 18641615 6% 15 6251003 54%
c u 129.34 2799 911 5 4 99 5877 736 8982203 18641615 6% 15 6248002 54%
c v 134.75 2799 911 5 4 99 5877 720 8982212 18641615 6% 15 6247999 54%
c w 147.68 2991 911 5 4 99 5877 806 9083312 18322854 6% 15 6247999 54%
c = 153.77 3026 911 5 4 99 5877 806 9157204 18322854 6% 15 6211053 54%
c d 155.92 3050 911 5 4 99 5877 802 6931656 18086940 6% 15 5113235 44%
c t 157.90 3058 911 5 4 99 5877 802 6931630 18086940 6% 15 5113229 44%
c b 158.62 3058 911 5 4 99 5877 802 6931630 18086940 6% 15 5040556 44%
c i 158.62 3058 911 5 4 99 5877 802 6931630 18086940 6% 15 5040556 44%
c i 159.71 3070 905 5 4 99 5889 810 6931632 18086938 6% 15 5040555 44%
c i 159.71 3070 905 5 4 99 5892 810 6931634 18086937 6% 15 5040554 44%
c i 159.72 3070 904 5 4 99 5895 810 6931636 18086936 6% 15 5040553 44%
c i 159.72 3070 903 5 4 99 5898 810 6931638 18086935 6% 15 5040552 44%
c i 159.72 3070 902 5 4 99 5901 810 6931640 18086934 6% 14 5040551 44%
c i 159.72 3070 901 5 4 99 5905 810 6931642 18086932 7% 14 5040550 44%
c i 159.72 3070 901 5 4 99 5908 810 6931644 18086931 7% 14 5040549 44%
c i 159.77 3070 900 5 4 99 5911 810 6931646 18086930 7% 14 5040546 44%
c i 165.84 3088 820 5 4 99 6154 928 6931649 18086930 9% 14 5040545 44%
c
c  seconds      switched conflicts        irredundant     variables
c            MB  reductions  redundant             trail        remaining
c              level restarts        binary            glue
c
c i 167.98 3092 784 5 4 99 6267 988 6931667 18086930 9% 14 5040544 44%
c i 175.68 3104 684 5 4 99 6732 1093 6931758 18086930 11% 15 5040543 44%
c i 175.88 3106 680 5 4 99 6747 1104 6931759 18086930 11% 14 5040542 44%
c - 182.39 2645 592 5 5 99 7282 1057 5612489 18062072 11% 16 5040542 44%
c i 187.29 2647 566 5 5 100 7652 1155 5612558 18062072 11% 15 5040518 44%
c i 204.07 2653 539 5 5 100 8057 1519 5612577 18062071 11% 16 5040517 44%
c i 207.64 2653 534 5 5 100 8151 1604 5612579 18062071 11% 17 5040516 44%
c i 207.65 2653 534 5 5 100 8154 1606 5612579 18062071 11% 17 5040515 44%
c i 209.03 2653 522 5 5 100 8419 1805 5612608 18062069 11% 18 5040514 44%
c i 209.04 2653 522 5 5 100 8420 1805 5612608 18062069 11% 18 5040513 44%
c B 226.25 2659 453 5 5 101 9484 2519 5612703 18062069 11% 20 5040513 44%
c - 227.73 2659 450 5 6 101 9518 1835 5611524 18062069 10% 20 5040513 44%
c i 228.13 2659 448 5 6 101 9537 1851 5611524 18062069 10% 20 5040512 44%
c ] 229.19 2659 442 6 6 101 9631 1894 5611538 18062069 10% 19 5040512 44%
c { 229.19 2659 744 6 6 101 9631 1894 5611538 18062069 15% 21 5040512 44%
c i 251.39 2677 695 6 6 104 10387 2194 5611678 18062069 15% 19 5040508 44%
c i 251.40 2677 695 6 6 104 10388 2194 5611678 18062069 15% 19 5040506 44%
c i 253.31 2677 717 6 6 104 10485 2256 5611685 18062069 15% 19 5040505 44%
c i 255.83 2677 708 6 6 105 10625 2382 5611690 18062068 15% 19 5040503 44%
c i 259.80 2679 705 6 6 110 10993 2579 5611703 18062068 15% 19 5040497 44%
c
c  seconds      switched  conflicts          irredundant      variables
c            MB  reductions    redundant               trail        remaining
c              level restarts           binary             glue
c
c i 259.80 2679 705 6 6 110 10995 2579 5611704 18062067 15% 19 5040492 44%
c i 259.80 2679 705 6 6 111 10997 2579 5611705 18062066 15% 19 5040488 44%
c i 259.84 2679 706 6 6 113 11002 2580 5611706 18062066 15% 19 5040479 44%
c i 259.85 2679 708 6 6 113 11007 2580 5611708 18062066 15% 19 5040478 44%
c d 262.85 2679 688 6 6 113 11352 2661 5602745 18060165 15% 18 5035384 44%
c b 264.10 2681 688 6 6 113 11352 2661 5602745 18060165 15% 18 5032340 44%
c u 267.96 2681 688 6 6 113 11352 2627 5602756 18060165 15% 18 5032340 44%
c v 271.85 2681 688 6 6 113 11352 2583 5602768 18060165 15% 18 5032340 44%
c w 283.72 2685 688 6 6 113 11352 2636 5690479 17882849 15% 18 5032045 44%
c = 291.60 2685 688 6 6 113 11352 2636 5690705 17873024 15% 18 5031842 44%
c d 292.99 2685 688 6 6 113 11352 2588 5611915 17863351 15% 18 4987694 43%
c t 294.54 2687 688 6 6 113 11352 2588 5611675 17863351 15% 18 4987693 43%
c b 295.10 2687 688 6 6 113 11352 2588 5611675 17863351 15% 18 4987617 43%
c i 295.10 2687 688 6 6 113 11352 2588 5611675 17863351 15% 18 4987617 43%
c i 296.10 2687 685 6 6 119 11383 2612 5611678 17863349 15% 18 4987616 43%
c i 296.74 2687 668 6 6 120 11719 2694 5611798 17863348 15% 17 4987612 43%
c i 296.74 2687 668 6 6 121 11720 2694 5611798 17863348 15% 17 4987611 43%
c i 296.76 2687 670 6 6 123 11726 2695 5611800 17863347 14% 17 4987610 43%
c i 296.89 2687 674 6 6 123 11736 2696 5611804 17863346 14% 17 4987609 43%
c - 302.61 2689 666 6 7 123 11967 2340 5591055 17863346 14% 17 4987609 43%
c
c  seconds      switched  conflicts          irredundant      variables
c            MB  reductions    redundant               trail        remaining
c              level restarts           binary             glue
c
c i 313.31 2689 659 6 7 124 12593 2612 5591168 17863346 15% 16 4987607 43%
c i 313.33 2689 660 6 7 124 12596 2614 5591168 17863346 15% 16 4987604 43%
c i 333.33 2693 652 6 7 124 13199 3036 5591178 17863346 15% 15 4987603 43%
c i 334.24 2693 646 6 7 125 13291 3125 5591178 17863346 15% 15 4987600 43%
c i 334.25 2693 647 6 7 126 13293 3126 5591178 17863346 15% 15 4987597 43%
c i 334.25 2693 647 6 7 126 13294 3126 5591178 17863346 15% 15 4987594 43%
c i 334.29 2693 648 6 7 128 13298 3126 5591179 17863346 15% 15 4987565 43%
c } 344.26 2695 655 7 7 131 13702 3296 5591238 17863346 15% 15 4987565 43%
c [ 344.26 2695 442 7 7 131 13702 3296 5591238 17863346 10% 19 4987565 43%
c - 345.31 2695 410 7 8 131 14613 3055 5591208 17863344 10% 19 4987565 43%
c W 349.19 2695 397 7 8 131 15016 3311 5591219 17844056 10% 19 4987565 43%
c - 368.97 2697 378 7 9 133 17441 3769 5591454 17844056 10% 23 4987565 43%
c i 384.77 2697 356 7 9 133 18151 4353 5591470 17844056 9% 25 4987564 43%
c i 384.78 2697 356 7 9 133 18158 4357 5591472 17844056 9% 25 4987563 43%
c i 386.30 2697 353 7 9 133 18212 4403 5591472 17844056 9% 25 4987562 43%
c i 387.40 2697 350 7 9 133 18301 4490 5591473 17844056 9% 25 4987561 43%
c i 390.20 2697 346 7 9 133 18404 4589 5591473 17844056 9% 25 4987560 43%
c i 395.31 2697 340 7 9 133 18683 4848 5591476 17844054 9% 25 4987559 43%
c i 395.72 2697 339 7 9 133 18705 4869 5591476 17844054 9% 25 4987558 43%
c i 396.70 2697 338 7 9 133 18728 4890 5591476 17844054 9% 25 4987557 43%
c
c  seconds      switched  conflicts          irredundant     variables
c            MB  reductions    redundant              trail        remaining
c              level restarts           binary            glue
c
c i 396.86 2697 338 7 9 133 18730 4891 5591476 17844054 9% 25 4987556 43%
c i 396.92 2697 338 7 9 133 18731 4891 5591476 17844054 9% 25 4987555 43%
c i 396.98 2697 338 7 9 133 18732 4891 5591476 17844054 9% 25 4987554 43%
c i 397.60 2697 337 7 9 133 18757 4914 5591477 17844054 9% 25 4987553 43%
c i 398.07 2697 337 7 9 133 18772 4926 5591477 17844054 9% 25 4987552 43%
c i 398.87 2697 335 7 9 133 18818 4968 5591480 17844054 9% 25 4987551 43%
c i 399.29 2697 334 7 9 133 18856 5003 5591482 17844054 9% 25 4987550 43%
c i 399.31 2697 334 7 9 133 18857 5003 5591482 17844054 9% 25 4987549 43%
c i 399.33 2697 334 7 9 133 18858 5003 5591482 17844054 9% 25 4987548 43%
c i 399.35 2697 334 7 9 133 18859 5003 5591482 17844054 9% 25 4987547 43%
c i 399.37 2697 334 7 9 133 18860 5003 5591482 17844054 9% 25 4987546 43%
c i 399.39 2697 334 7 9 133 18861 5003 5591482 17844054 9% 25 4987545 43%
c i 399.41 2697 334 7 9 133 18862 5003 5591482 17844054 9% 25 4987544 43%
c i 399.43 2697 334 7 9 133 18863 5003 5591482 17844054 9% 25 4987543 43%
c i 399.45 2697 333 7 9 133 18864 5003 5591482 17844054 9% 25 4987542 43%
c i 399.47 2697 333 7 9 133 18865 5003 5591482 17844054 9% 25 4987541 43%
c i 399.49 2697 333 7 9 133 18866 5003 5591482 17844054 9% 25 4987540 43%
c i 399.51 2697 333 7 9 133 18867 5003 5591482 17844054 9% 25 4987539 43%
c i 399.53 2697 333 7 9 133 18868 5003 5591482 17844054 9% 25 4987538 43%
c i 399.55 2697 333 7 9 133 18869 5003 5591482 17844054 9% 25 4987537 43%
c
c  seconds      switched  conflicts          irredundant     variables
c            MB  reductions    redundant              trail        remaining
c              level restarts           binary            glue
c
c i 399.57 2697 333 7 9 133 18870 5003 5591482 17844054 9% 25 4987536 43%
c i 399.59 2697 333 7 9 133 18871 5003 5591482 17844054 9% 25 4987535 43%
c i 399.61 2697 333 7 9 133 18872 5003 5591482 17844054 9% 25 4987534 43%
c i 399.78 2697 333 7 9 133 18879 5008 5591483 17844054 9% 25 4987533 43%
c i 400.57 2697 332 7 9 133 18904 5032 5591483 17844054 9% 25 4987531 43%
c i 400.97 2697 332 7 9 133 18914 5041 5591483 17844054 9% 25 4987530 43%
c i 400.98 2697 331 7 9 133 18919 5045 5591483 17844054 9% 25 4987529 43%
c i 403.01 2697 329 7 9 133 19000 5122 5591485 17844054 9% 24 4987528 43%
c i 403.11 2697 328 7 9 133 19016 5137 5591485 17844054 9% 24 4987527 43%
c i 403.40 2697 328 7 9 133 19031 5148 5591488 17844054 9% 24 4987526 43%
c i 403.61 2697 327 7 9 133 19046 5157 5591493 17844054 9% 24 4987525 43%
c i 403.76 2697 327 7 9 133 19056 5166 5591493 17844054 9% 24 4987524 43%
c i 403.78 2697 327 7 9 133 19057 5166 5591493 17844054 9% 24 4987523 43%
c i 403.78 2697 327 7 9 133 19058 5166 5591493 17844054 9% 24 4987522 43%
c i 403.79 2697 327 7 9 133 19059 5166 5591493 17844054 9% 24 4987521 43%
c i 403.80 2697 327 7 9 133 19060 5166 5591493 17844054 9% 24 4987520 43%
c i 403.81 2697 327 7 9 133 19061 5166 5591493 17844054 9% 24 4987519 43%
c i 403.82 2697 327 7 9 133 19062 5166 5591493 17844054 9% 24 4987518 43%
c i 403.82 2697 327 7 9 133 19063 5166 5591493 17844054 9% 24 4987517 43%
c i 403.83 2697 327 7 9 133 19064 5166 5591493 17844054 9% 24 4987516 43%
c
c  seconds      switched  conflicts          irredundant     variables
c            MB  reductions    redundant              trail        remaining
c              level restarts           binary            glue
c
c i 403.84 2697 327 7 9 133 19065 5166 5591493 17844054 9% 24 4987515 43%
c i 403.86 2697 326 7 9 133 19069 5169 5591493 17844054 9% 24 4987514 43%
c i 403.87 2697 326 7 9 133 19071 5170 5591493 17844054 9% 24 4987513 43%
c i 403.88 2697 326 7 9 133 19072 5170 5591493 17844054 9% 24 4987512 43%
c i 403.88 2697 326 7 9 133 19073 5170 5591493 17844054 9% 24 4987511 43%
c i 404.61 2697 325 7 9 133 19111 5185 5591508 17844054 9% 24 4987509 43%
c i 404.97 2697 325 7 9 133 19121 5192 5591508 17844054 9% 24 4987506 43%
c i 407.94 2697 321 7 9 133 19241 5295 5591516 17844054 9% 24 4987505 43%
c i 408.00 2697 321 7 9 133 19242 5295 5591516 17844054 9% 24 4987504 43%
c i 408.05 2697 321 7 9 133 19243 5295 5591516 17844054 9% 24 4987503 43%
c i 408.11 2697 321 7 9 133 19244 5295 5591516 17844054 9% 24 4987502 43%
c i 408.16 2697 321 7 9 133 19245 5295 5591516 17844054 9% 24 4987501 43%
c i 411.46 2697 315 7 9 133 19418 5452 5591524 17844054 9% 24 4987500 43%
c i 412.71 2697 314 7 9 134 19456 5489 5591524 17844054 9% 24 4987499 43%
c ] 414.19 2697 312 8 9 134 19519 5552 5591524 17844054 9% 24 4987499 43%
c { 414.19 2697 655 8 9 134 19519 5552 5591524 17844054 15% 15 4987499 43%
c i 415.25 2699 654 8 9 134 19570 5600 5591525 17844054 15% 14 4987498 43%
c i 418.09 2699 644 8 9 134 19702 5721 5591531 17844054 14% 14 4987497 43%
c i 418.09 2699 644 8 9 134 19703 5721 5591531 17844054 14% 14 4987496 43%
c i 418.09 2699 644 8 9 134 19704 5721 5591531 17844054 14% 14 4987495 43%
c
c  seconds      switched  conflicts          irredundant      variables
c            MB  reductions    redundant               trail        remaining
c              level restarts           binary             glue
c
c i 418.09 2699 644 8 9 134 19705 5721 5591531 17844054 14% 14 4987494 43%
c i 418.09 2699 644 8 9 134 19706 5721 5591531 17844054 14% 14 4987493 43%
c i 421.51 2699 635 8 9 134 19813 5818 5591538 17844054 14% 14 4986998 43%
c i 423.00 2699 631 8 9 141 19874 5865 5591545 17844054 14% 14 4984814 43%
c i 426.06 2699 623 8 9 142 19979 5947 5591558 17844054 14% 14 4984708 43%
c i 426.96 2699 621 8 9 142 20001 5965 5591561 17844054 14% 14 4981109 43%
c i 427.04 2699 621 8 9 142 20002 5965 5591561 17844054 14% 14 4980875 43%
c i 427.17 2699 620 8 9 142 20007 5966 5591562 17844054 14% 14 4978307 43%
c i 427.20 2699 620 8 9 142 20008 5966 5591562 17844054 14% 14 4968175 43%
c i 427.20 2699 620 8 9 142 20009 5966 5591562 17844054 14% 14 4967818 43%
c i 427.27 2699 620 8 9 142 20010 5966 5591562 17844054 14% 14 4877410 42%
c } 427.27 2699 620 8 9 142 20012 5966 5591562 17844054 14% 14 4876903 42%
c 0 427.27 2699 620 8 9 142 20012 5966 5591562 17844054 14% 14 4876903 42%
c
c ---- [ result ] ------------------------------------------------------------
c
s UNSATISFIABLE
c
c ---- [ profiling ] ---------------------------------------------------------
c
c         334.87   78.38 %  search
c         187.59   43.91 %  focused
c         147.28   34.47 %  stable
c          80.18   18.77 %  simplify
c          72.22   16.90 %  probe
c          42.60    9.97 %  vivify
c          13.97    3.27 %  sweep
c          12.24    2.86 %  reduce
c          12.21    2.86 %  parse
c          10.55    2.47 %  substitute
c           7.96    1.86 %  walking
c           4.90    1.15 %  warmup
c           2.93    0.68 %  backbone
c           2.16    0.51 %  transitive
c =============================================
c         427.27  100.00 %  total
c
c ---- [ statistics ] --------------------------------------------------------
c
c chronological:                         5518               28 %  conflicts
c conflicts:                            20012               46.84 per second
c decisions:                           441806               22.08 per conflict
c jumped_reasons:                    69714810                4 %  propagations
c propagations:                    1635697357          3828260    per second
c queue_decisions:                     195791               44 %  decision
c random_decisions:                     70929               16 %  decision
c random_sequences:                        11             1819    interval
c reductions:                               9             2224    interval
c rephased:                                 5             4002    interval
c restarts:                               142              140.93 interval
c score_decisions:                     175086               40 %  decision
c substituted:                        1721328               15 %  variables
c switched:                                 8             2502    interval
c vivified:                               952                5 %  checks
c vivify_checks:                        19443             9722    per vivify
c vivify_units:                            17                0 %  variables
c walk_improved:                            2              100 %  walks
c walks:                                    2            10006    interval
c
c ---- [ resources ] ---------------------------------------------------------
c
c maximum-resident-set-size:       4264443904 bytes       4067 MB
c process-time:                          7m 7s             427.27 seconds
c
c ---- [ shutting down ] -----------------------------------------------------
c
c exit 20
